$ LBS instance with n = 51, seed = 8312021
letting cards be [28,49,22,4,38,17,48,16,50,46,25,24,23,0,8,2,7,29,10,39,21,6,15,1,11,5,35,40,27,42,18,43,30,37,9,36,47,41,51,14,33,34,3,45,32,12,26,20,44,13,19]
